NAME          DCAP_2_4_3_500_SS398
ROWS
 N  OBJ
 L  CON1
 L  CON2
 L  CON3
 L  CON4
 L  CON5
 L  CON6
 L  CON7
 L  CON8
 L  CON9
 L  CON10
 L  CON11
 L  CON12
 E  CON13
 E  CON14
 E  CON15
 E  CON16
 E  CON17
 E  CON18
 E  CON19
 E  CON20
 E  CON21
 E  CON22
 E  CON23
 E  CON24
COLUMNS
    x[1,1]    OBJ       6.180167      CON1      1.000000    
    x[1,1]    CON7      -1.000000     CON8      -1.000000   
    x[1,1]    CON9      -1.000000   
    x[1,2]    OBJ       6.563535      CON2      1.000000    
    x[1,2]    CON8      -1.000000     CON9      -1.000000   
    x[1,3]    OBJ       7.443064      CON3      1.000000    
    x[1,3]    CON9      -1.000000   
    x[2,1]    OBJ       6.732585      CON4      1.000000    
    x[2,1]    CON10     -1.000000     CON11     -1.000000   
    x[2,1]    CON12     -1.000000   
    x[2,2]    OBJ       5.039546      CON5      1.000000    
    x[2,2]    CON11     -1.000000     CON12     -1.000000   
    x[2,3]    OBJ       6.054841      CON6      1.000000    
    x[2,3]    CON12     -1.000000   
    MARKER    'MARKER'                'INTORG'
    u[1,1]    OBJ       48.076654     CON1      -1.000000   
    u[1,2]    OBJ       20.066487     CON2      -1.000000   
    u[1,3]    OBJ       32.230043     CON3      -1.000000   
    u[2,1]    OBJ       49.996186     CON4      -1.000000   
    u[2,2]    OBJ       49.466655     CON5      -1.000000   
    u[2,3]    OBJ       27.484319     CON6      -1.000000   
    y[1,1,1]  OBJ       7.223944      CON7      1.442470    
    y[1,1,1]  CON13     1.000000    
    y[1,1,2]  OBJ       8.750410      CON8      0.979793    
    y[1,1,2]  CON14     1.000000    
    y[1,1,3]  OBJ       5.651674      CON9      1.468253    
    y[1,1,3]  CON15     1.000000    
    y[1,2,1]  OBJ       7.972196      CON7      0.677414    
    y[1,2,1]  CON16     1.000000    
    y[1,2,2]  OBJ       9.296520      CON8      0.949621    
    y[1,2,2]  CON17     1.000000    
    y[1,2,3]  OBJ       5.521361      CON9      1.354335    
    y[1,2,3]  CON18     1.000000    
    y[1,3,1]  OBJ       9.513254      CON7      0.828033    
    y[1,3,1]  CON19     1.000000    
    y[1,3,2]  OBJ       8.318197      CON8      0.923353    
    y[1,3,2]  CON20     1.000000    
    y[1,3,3]  OBJ       6.354421      CON9      1.373036    
    y[1,3,3]  CON21     1.000000    
    y[1,4,1]  OBJ       9.892899      CON7      1.214666    
    y[1,4,1]  CON22     1.000000    
    y[1,4,2]  OBJ       9.735415      CON8      1.448097    
    y[1,4,2]  CON23     1.000000    
    y[1,4,3]  OBJ       9.287355      CON9      1.258517    
    y[1,4,3]  CON24     1.000000    
    y[2,1,1]  OBJ       5.829032      CON10     1.442470    
    y[2,1,1]  CON13     1.000000    
    y[2,1,2]  OBJ       5.934536      CON11     0.979793    
    y[2,1,2]  CON14     1.000000    
    y[2,1,3]  OBJ       7.783589      CON12     1.468253    
    y[2,1,3]  CON15     1.000000    
    y[2,2,1]  OBJ       6.662141      CON10     0.677414    
    y[2,2,1]  CON16     1.000000    
    y[2,2,2]  OBJ       9.037467      CON11     0.949621    
    y[2,2,2]  CON17     1.000000    
    y[2,2,3]  OBJ       9.861661      CON12     1.354335    
    y[2,2,3]  CON18     1.000000    
    y[2,3,1]  OBJ       7.174930      CON10     0.828033    
    y[2,3,1]  CON19     1.000000    
    y[2,3,2]  OBJ       5.056778      CON11     0.923353    
    y[2,3,2]  CON20     1.000000    
    y[2,3,3]  OBJ       6.784114      CON12     1.373036    
    y[2,3,3]  CON21     1.000000    
    y[2,4,1]  OBJ       7.438216      CON10     1.214666    
    y[2,4,1]  CON22     1.000000    
    y[2,4,2]  OBJ       9.478616      CON11     1.448097    
    y[2,4,2]  CON23     1.000000    
    y[2,4,3]  OBJ       6.263264      CON12     1.258517    
    y[2,4,3]  CON24     1.000000    
    z[1,1]    OBJ       564.455317    CON13     1.000000    
    z[1,2]    OBJ       696.329807    CON14     1.000000    
    z[1,3]    OBJ       618.324533    CON15     1.000000    
    z[2,1]    OBJ       565.806981    CON16     1.000000    
    z[2,2]    OBJ       918.565003    CON17     1.000000    
    z[2,3]    OBJ       850.650114    CON18     1.000000    
    z[3,1]    OBJ       604.277191    CON19     1.000000    
    z[3,2]    OBJ       991.637940    CON20     1.000000    
    z[3,3]    OBJ       882.864188    CON21     1.000000    
    z[4,1]    OBJ       722.002761    CON22     1.000000    
    z[4,2]    OBJ       686.916148    CON23     1.000000    
    z[4,3]    OBJ       659.300255    CON24     1.000000    
    MARKER    'MARKER'                 'INTEND'
RHS
    RHS       CON1      -0.000000     CON2      -0.000000   
    RHS       CON3      -0.000000     CON4      -0.000000   
    RHS       CON5      -0.000000     CON6      -0.000000   
    RHS       CON7      -0.000000     CON8      -0.000000   
    RHS       CON9      -0.000000     CON10     -0.000000   
    RHS       CON11     -0.000000     CON12     -0.000000   
    RHS       CON13     1.000000      CON14     1.000000    
    RHS       CON15     1.000000      CON16     1.000000    
    RHS       CON17     1.000000      CON18     1.000000    
    RHS       CON19     1.000000      CON20     1.000000    
    RHS       CON21     1.000000      CON22     1.000000    
    RHS       CON23     1.000000      CON24     1.000000    
BOUNDS
 BV BOUND     u[1,1]  
 BV BOUND     u[1,2]  
 BV BOUND     u[1,3]  
 BV BOUND     u[2,1]  
 BV BOUND     u[2,2]  
 BV BOUND     u[2,3]  
 BV BOUND     y[1,1,1]
 BV BOUND     y[1,1,2]
 BV BOUND     y[1,1,3]
 BV BOUND     y[1,2,1]
 BV BOUND     y[1,2,2]
 BV BOUND     y[1,2,3]
 BV BOUND     y[1,3,1]
 BV BOUND     y[1,3,2]
 BV BOUND     y[1,3,3]
 BV BOUND     y[1,4,1]
 BV BOUND     y[1,4,2]
 BV BOUND     y[1,4,3]
 BV BOUND     y[2,1,1]
 BV BOUND     y[2,1,2]
 BV BOUND     y[2,1,3]
 BV BOUND     y[2,2,1]
 BV BOUND     y[2,2,2]
 BV BOUND     y[2,2,3]
 BV BOUND     y[2,3,1]
 BV BOUND     y[2,3,2]
 BV BOUND     y[2,3,3]
 BV BOUND     y[2,4,1]
 BV BOUND     y[2,4,2]
 BV BOUND     y[2,4,3]
 BV BOUND     z[1,1]  
 BV BOUND     z[1,2]  
 BV BOUND     z[1,3]  
 BV BOUND     z[2,1]  
 BV BOUND     z[2,2]  
 BV BOUND     z[2,3]  
 BV BOUND     z[3,1]  
 BV BOUND     z[3,2]  
 BV BOUND     z[3,3]  
 BV BOUND     z[4,1]  
 BV BOUND     z[4,2]  
 BV BOUND     z[4,3]  
ENDATA
